Clp0006I 0  Obj 0 Primal inf 999.9999 (1000) Dual inf 249999.97 (250000)
Clp0006I 166  Obj -240020 Primal inf 509672 (1000)
Clp0006I 279  Obj -239022 Primal inf 512576 (999)
Clp0006I 399  Obj -238024 Primal inf 510346 (997)
Clp0006I 507  Obj -238024 Primal inf 524961 (999)
Clp0006I 616  Obj -237026 Primal inf 527858 (999)
Clp0006I 740  Obj -237026 Primal inf 548024 (999)
Clp0006I 845  Obj -237026 Primal inf 541647 (999)
Clp0006I 948  Obj -233763 Primal inf 503515 (1000)
Clp0006I 1085  Obj -232260 Primal inf 499147 (999)
Clp0006I 1247  Obj -229751 Primal inf 567394 (999)
Clp0006I 1331  Obj -215070 Primal inf 593934 (1000)
Clp0006I 1451  Obj -215070 Primal inf 583898 (1000)
Clp0006I 1575  Obj -215070 Primal inf 565233 (1000)
Clp0006I 1684  Obj -215070 Primal inf 557937 (1000)
Clp0006I 1799  Obj -215070 Primal inf 542668 (1000)
Clp0006I 1906  Obj -215070 Primal inf 515882 (999)
Clp0006I 2010  Obj -215070 Primal inf 551051 (998)
Clp0006I 2113  Obj -215070 Primal inf 501499 (997)
Clp0006I 2201  Obj -215070 Primal inf 588023 (999)
Clp0006I 2306  Obj -215070 Primal inf 596456 (999)
Clp0006I 2419  Obj -215070 Primal inf 601963 (999)
Clp0006I 2510  Obj -215070 Primal inf 632961 (1000)
Clp0006I 2624  Obj -215070 Primal inf 624605 (999)
Clp0006I 2720  Obj -215070 Primal inf 643601 (997)
Clp0006I 2817  Obj -215070 Primal inf 619040 (1000)
Clp0006I 2912  Obj -215070 Primal inf 585871 (1000)
Clp0006I 3027  Obj -215070 Primal inf 530329 (999)
Clp0006I 3161  Obj -215070 Primal inf 546275 (1000)
Clp0006I 3242  Obj -215070 Primal inf 527313 (999)
Clp0006I 3359  Obj -214571 Primal inf 525097 (996)
Clp0006I 3469  Obj -213573 Primal inf 555276 (998)
Clp0006I 3590  Obj -211078 Primal inf 530061 (999)
Clp0006I 3689  Obj -211078 Primal inf 534102 (998)
Clp0006I 3791  Obj -211078 Primal inf 536303 (999)
Clp0006I 3877  Obj -211078 Primal inf 650088 (999)
Clp0006I 3965  Obj -211078 Primal inf 613136 (999)
Clp0006I 4072  Obj -211078 Primal inf 764779 (999)
Clp0006I 4166  Obj -190619 Primal inf 828901 (999)
Clp0006I 4282  Obj -190619 Primal inf 664329 (999)
Clp0006I 4403  Obj -190619 Primal inf 771064 (999)
Clp0006I 4509  Obj -190619 Primal inf 649803 (999)
Clp0006I 4634  Obj -190619 Primal inf 623924 (999)
Clp0006I 4735  Obj -190619 Primal inf 870580 (999)
Clp0006I 4834  Obj -190619 Primal inf 595387 (998)
Clp0006I 4940  Obj -190619 Primal inf 665590 (999)
Clp0006I 5047  Obj -190619 Primal inf 745489 (999)
Clp0006I 5157  Obj -190619 Primal inf 622727 (999)
Clp0006I 5265  Obj -190619 Primal inf 665066 (999)
Clp0006I 5368  Obj -190619 Primal inf 598084 (999)
Clp0006I 5468  Obj -190619 Primal inf 972886 (998)
Clp0006I 5562  Obj -190619 Primal inf 700527 (999)
Clp0006I 5661  Obj -190619 Primal inf 762277 (999)
Clp0006I 5764  Obj -190619 Primal inf 757232 (999)
Clp0006I 5858  Obj -190619 Primal inf 761892 (999)
Clp0006I 5966  Obj -190619 Primal inf 582137 (999)
Clp0006I 6072  Obj -190619 Primal inf 634320 (999)
Clp0006I 6172  Obj -190619 Primal inf 638005 (999)
Clp0006I 6278  Obj -190619 Primal inf 599991 (998)
Clp0006I 6376  Obj -190619 Primal inf 661752 (998)
Clp0006I 6488  Obj -190619 Primal inf 708431 (998)
Clp0006I 6617  Obj -190619 Primal inf 642036 (998)
Clp0006I 6718  Obj -190619 Primal inf 581557 (997)
Clp0006I 6819  Obj -190619 Primal inf 580043 (997)
Clp0006I 6919  Obj -190619 Primal inf 610638 (999)
Clp0006I 7009  Obj -190619 Primal inf 724472 (998)
Clp0006I 7118  Obj -190619 Primal inf 651513 (999)
Clp0006I 7228  Obj -190619 Primal inf 619470 (999)
Clp0006I 7328  Obj -190619 Primal inf 571899 (998)
Clp0006I 7431  Obj -190619 Primal inf 621561 (998)
Clp0006I 7528  Obj -190619 Primal inf 588124 (998)
Clp0006I 7635  Obj -190619 Primal inf 598702 (996)
Clp0006I 7734  Obj -190619 Primal inf 629219 (997)
Clp0006I 7836  Obj -190619 Primal inf 616206 (997)
Clp0006I 7934  Obj -190619 Primal inf 550462 (997)
Clp0006I 8045  Obj -190619 Primal inf 525761 (997)
Clp0006I 8127  Obj -190619 Primal inf 599367 (998)
Clp0006I 8219  Obj -190619 Primal inf 647769 (996)
Clp0006I 8333  Obj -190619 Primal inf 717842 (997)
Clp0006I 8443  Obj -190619 Primal inf 641497 (997)
Clp0006I 8537  Obj -190619 Primal inf 651695 (997)
Clp0006I 8629  Obj -190619 Primal inf 590889 (999)
Clp0006I 8724  Obj -190619 Primal inf 694442 (997)
Clp0006I 8805  Obj -190619 Primal inf 653945 (997)
Clp0006I 8901  Obj -190619 Primal inf 600381 (999)
Clp0006I 8994  Obj -190619 Primal inf 612340 (999)
Clp0006I 9091  Obj -190619 Primal inf 576783 (1000)
Clp0006I 9185  Obj -190619 Primal inf 590853 (999)
Clp0006I 9283  Obj -190619 Primal inf 576823 (998)
Clp0006I 9381  Obj -190619 Primal inf 579088 (998)
Clp0006I 9489  Obj -190619 Primal inf 569785 (998)
Clp0006I 9577  Obj -190619 Primal inf 643006 (998)
Clp0006I 9661  Obj -190619 Primal inf 651397 (998)
Clp0006I 9749  Obj -190619 Primal inf 523062 (998)
Clp0006I 9853  Obj -190619 Primal inf 590578 (999)
Clp0006I 9945  Obj -190619 Primal inf 579278 (997)
Clp0006I 10051  Obj -190619 Primal inf 548161 (999)
Clp0006I 10143  Obj -190619 Primal inf 619814 (999)
Clp0006I 10244  Obj -190619 Primal inf 555681 (999)
Clp0006I 10346  Obj -190619 Primal inf 568176 (1000)
Clp0006I 10437  Obj -190619 Primal inf 615083 (998)
Clp0006I 10522  Obj -190619 Primal inf 755909 (998)
Clp0006I 10611  Obj -190619 Primal inf 789204 (998)
Clp0006I 10696  Obj -190619 Primal inf 592327 (998)
Clp0006I 10773  Obj -190619 Primal inf 641571 (998)
Clp0006I 10865  Obj -190619 Primal inf 618909 (998)
Clp0006I 10970  Obj -190619 Primal inf 726367 (997)
Clp0006I 11066  Obj -190619 Primal inf 657928 (998)
Clp0006I 11168  Obj -190619 Primal inf 660244 (998)
Clp0006I 11261  Obj -190619 Primal inf 772144 (996)
Clp0006I 11359  Obj -190619 Primal inf 705081 (997)
Clp0006I 11458  Obj -190619 Primal inf 647737 (998)
Clp0006I 11546  Obj -190619 Primal inf 631320 (998)
Clp0006I 11645  Obj -190619 Primal inf 656023 (998)
Clp0006I 11760  Obj -190619 Primal inf 759998 (998)
Clp0006I 11850  Obj -190619 Primal inf 641146 (997)
Clp0006I 11955  Obj -190619 Primal inf 688315 (997)
Clp0006I 12046  Obj -190619 Primal inf 696937 (998)
Clp0006I 12150  Obj -190619 Primal inf 727525 (998)
Clp0006I 12245  Obj -190619 Primal inf 624114 (998)
Clp0006I 12337  Obj -190619 Primal inf 791921 (999)
Clp0006I 12436  Obj -190619 Primal inf 934853 (1000)
Clp0006I 12505  Obj -190619 Primal inf 759577 (1000)
Clp0006I 12580  Obj -190619 Primal inf 601967 (1000)
Clp0006I 12664  Obj -190619 Primal inf 683440 (1000)
Clp0006I 12767  Obj -190619 Primal inf 581487 (1000)
Clp0006I 12858  Obj -190619 Primal inf 677728 (1000)
Clp0006I 12938  Obj -190619 Primal inf 596328 (999)
Clp0006I 13032  Obj -190619 Primal inf 620475 (999)
Clp0006I 13118  Obj -190619 Primal inf 675400 (999)
Clp0006I 13217  Obj -190619 Primal inf 788516 (999)
Clp0006I 13303  Obj -190619 Primal inf 603018 (999)
Clp0006I 13401  Obj -190619 Primal inf 662445 (998)
Clp0006I 13503  Obj -190619 Primal inf 712509 (999)
Clp0006I 13591  Obj -190619 Primal inf 698730 (999)
Clp0006I 13679  Obj -190619 Primal inf 662900 (999)
Clp0006I 13778  Obj -190619 Primal inf 680281 (999)
Clp0006I 13868  Obj -190619 Primal inf 672623 (999)
Clp0006I 13963  Obj -190619 Primal inf 761156 (999)
Clp0006I 14058  Obj -190619 Primal inf 774715 (1000)
Clp0006I 14157  Obj -190619 Primal inf 771330 (1000)
Clp0006I 14253  Obj -190619 Primal inf 767203 (999)
Clp0006I 14352  Obj -190619 Primal inf 772387 (999)
Clp0006I 14447  Obj -190619 Primal inf 667736 (999)
Clp0006I 14553  Obj -190619 Primal inf 789010 (1000)
Clp0006I 14650  Obj -190619 Primal inf 783303 (1000)
Clp0006I 14743  Obj -190619 Primal inf 609693 (1000)
Clp0006I 14832  Obj -190619 Primal inf 649678 (1000)
Clp0006I 14918  Obj -190619 Primal inf 620097 (1000)
Clp0006I 15014  Obj -190619 Primal inf 659695 (1000)
Clp0006I 15111  Obj -190619 Primal inf 674549 (999)
Clp0006I 15210  Obj -190619 Primal inf 768145 (998)
Clp0006I 15305  Obj -190619 Primal inf 712044 (999)
Clp0006I 15412  Obj -190619 Primal inf 644351 (1000)
Clp0006I 15506  Obj -190619 Primal inf 708041 (1000)
Clp0006I 15602  Obj -190619 Primal inf 688856 (999)
Clp0006I 15710  Obj -190619 Primal inf 766794 (998)
Clp0006I 15796  Obj -190619 Primal inf 651204 (999)
Clp0006I 15889  Obj -190619 Primal inf 812215 (999)
Clp0006I 15976  Obj -190619 Primal inf 862005 (999)
Clp0006I 16068  Obj -190619 Primal inf 838436 (999)
Clp0006I 16153  Obj -190619 Primal inf 619341 (998)
Clp0006I 16242  Obj -190619 Primal inf 623949 (998)
Clp0006I 16324  Obj -190619 Primal inf 630962 (998)
Clp0006I 16406  Obj -190619 Primal inf 564368 (998)
Clp0006I 16499  Obj -190619 Primal inf 636454 (999)
Clp0006I 16601  Obj -190619 Primal inf 590503 (999)
Clp0006I 16690  Obj -190619 Primal inf 569887 (1000)
Clp0006I 16774  Obj -190619 Primal inf 608632 (1000)
Clp0006I 16871  Obj -190619 Primal inf 589277 (1000)
Clp0006I 16957  Obj -190619 Primal inf 706320 (1000)
Clp0006I 17052  Obj -190619 Primal inf 668882 (999)
Clp0006I 17143  Obj -190619 Primal inf 699228 (999)
Clp0006I 17240  Obj -190619 Primal inf 735870 (1000)
Clp0006I 17327  Obj -190619 Primal inf 639455 (1000)
Clp0006I 17413  Obj -190619 Primal inf 677308 (999)
Clp0006I 17511  Obj -190619 Primal inf 606818 (999)
Clp0006I 17602  Obj -190619 Primal inf 735951 (999)
Clp0006I 17709  Obj -190619 Primal inf 637639 (999)
Clp0006I 17801  Obj -190619 Primal inf 681223 (999)
Clp0006I 17884  Obj -190619 Primal inf 620605 (1000)
Clp0006I 17978  Obj -190619 Primal inf 642271 (999)
Clp0006I 18064  Obj -190619 Primal inf 630852 (999)
Clp0006I 18155  Obj -190619 Primal inf 633980 (1000)
Clp0006I 18256  Obj -190619 Primal inf 600552 (999)
Clp0006I 18352  Obj -190619 Primal inf 720783 (998)
Clp0006I 18454  Obj -190619 Primal inf 686439 (998)
Clp0006I 18555  Obj -190619 Primal inf 657918 (996)
Clp0006I 18645  Obj -190619 Primal inf 610824 (997)
Clp0006I 18741  Obj -190619 Primal inf 680836 (997)
Clp0006I 18832  Obj -190619 Primal inf 621003 (997)
Clp0006I 18926  Obj -190619 Primal inf 636393 (998)
Clp0006I 19021  Obj -190619 Primal inf 666720 (999)
Clp0006I 19118  Obj -190619 Primal inf 747106 (998)
Clp0006I 19213  Obj -190619 Primal inf 666369 (999)
Clp0006I 19301  Obj -190619 Primal inf 639412 (999)
Clp0006I 19386  Obj -190619 Primal inf 563160 (999)
Clp0006I 19476  Obj -190619 Primal inf 628461 (1000)
Clp0006I 19568  Obj -190619 Primal inf 795680 (999)
Clp0006I 19666  Obj -190619 Primal inf 791195 (999)
Clp0006I 19752  Obj -190619 Primal inf 588433 (999)
Clp0006I 19850  Obj -190619 Primal inf 624604 (999)
Clp0006I 19938  Obj -190619 Primal inf 585992 (999)
Clp0006I 20042  Obj -190619 Primal inf 676442 (1000)
Clp0006I 20153  Obj -190619 Primal inf 674089 (1000)
Clp0006I 20259  Obj -190619 Primal inf 691266 (1000)
Clp0006I 20351  Obj -190619 Primal inf 658774 (1000)
Clp0006I 20453  Obj -190619 Primal inf 637319 (1000)
Clp0006I 20547  Obj -190619 Primal inf 558661 (999)
Clp0006I 20629  Obj -190619 Primal inf 616449 (1000)
Clp0006I 20716  Obj -190619 Primal inf 642433 (1000)
Clp0006I 20803  Obj -190619 Primal inf 615838 (1000)
Clp0006I 20904  Obj -190619 Primal inf 583585 (1000)
Clp0006I 21002  Obj -190619 Primal inf 555480 (1000)
Clp0006I 21104  Obj -190619 Primal inf 563264 (1000)
Clp0006I 21203  Obj -190619 Primal inf 667173 (1000)
Clp0006I 21306  Obj -190619 Primal inf 691559 (1000)
Clp0006I 21390  Obj -190619 Primal inf 706412 (1000)
Clp0006I 21486  Obj -190619 Primal inf 596225 (1000)
Clp0006I 21579  Obj -190619 Primal inf 624466 (1000)
Clp0006I 21676  Obj -190619 Primal inf 694558 (1000)
Clp0006I 21762  Obj -190619 Primal inf 561688 (1000)
Clp0006I 21844  Obj -190619 Primal inf 657637 (1000)
Clp0006I 21944  Obj -190619 Primal inf 645131 (1000)
Clp0006I 22024  Obj -190619 Primal inf 601599 (1000)
Clp0006I 22130  Obj -190619 Primal inf 660836 (1000)
Clp0006I 22224  Obj -190619 Primal inf 654810 (1000)
Clp0006I 22308  Obj -190619 Primal inf 629269 (1000)
Clp0006I 22385  Obj -190619 Primal inf 628256 (1000)
Clp0006I 22471  Obj -190619 Primal inf 637067 (1000)
Clp0006I 22567  Obj -190619 Primal inf 582361 (1000)
Clp0006I 22657  Obj -190619 Primal inf 600271 (1000)
Clp0006I 22743  Obj -190619 Primal inf 596246 (1000)
Clp0006I 22833  Obj -190619 Primal inf 617749 (1000)
Clp0006I 22926  Obj -190619 Primal inf 621090 (1000)
Clp0006I 23011  Obj -190619 Primal inf 696955 (999)
Clp0006I 23102  Obj -190619 Primal inf 713397 (999)
Clp0006I 23186  Obj -190619 Primal inf 616941 (998)
Clp0006I 23321  Obj -190619 Primal inf 647389 (999)
Clp0006I 23423  Obj -190619 Primal inf 645909 (999)
Clp0006I 23513  Obj -190619 Primal inf 607124 (1000)
Clp0006I 23601  Obj -190619 Primal inf 545844 (999)
Clp0006I 23691  Obj -190619 Primal inf 743168 (1000)
Clp0006I 23782  Obj -190619 Primal inf 730268 (1000)
Clp0006I 23866  Obj -190619 Primal inf 599884 (999)
Clp0006I 23955  Obj -190619 Primal inf 654121 (999)
Clp0006I 24031  Obj -190619 Primal inf 626282 (999)
Clp0006I 24133  Obj -190619 Primal inf 696950 (999)
Clp0006I 24232  Obj -190619 Primal inf 716957 (1000)
Clp0006I 24320  Obj -190619 Primal inf 694418 (999)
Clp0006I 24422  Obj -190619 Primal inf 597999 (999)
Clp0006I 24495  Obj -190619 Primal inf 699464 (999)
Clp0006I 24590  Obj -190619 Primal inf 549194 (998)
Clp0006I 24668  Obj -190619 Primal inf 612379 (998)
Clp0006I 24758  Obj -190619 Primal inf 680472 (998)
Clp0006I 24859  Obj -190619 Primal inf 712030 (997)
Clp0006I 24950  Obj -190619 Primal inf 616963 (999)
Clp0006I 25036  Obj -190619 Primal inf 613559 (999)
Clp0006I 25113  Obj -190619 Primal inf 634663 (1000)
Clp0006I 25220  Obj -190619 Primal inf 667598 (1000)
Clp0006I 25319  Obj -190619 Primal inf 661045 (1000)
Clp0006I 25407  Obj -190619 Primal inf 673963 (1000)
Clp0006I 25502  Obj -190619 Primal inf 618314 (1000)
Clp0006I 25592  Obj -190619 Primal inf 648493 (1000)
Clp0006I 25688  Obj -190619 Primal inf 666527 (999)
Clp0006I 25774  Obj -190619 Primal inf 614593 (999)
Clp0006I 25871  Obj -190619 Primal inf 659887 (998)
Clp0006I 25963  Obj -190619 Primal inf 645283 (998)
Clp0006I 26063  Obj -190619 Primal inf 600861 (998)
Clp0006I 26168  Obj -190619 Primal inf 738463 (999)
Clp0006I 26276  Obj -190619 Primal inf 649963 (999)
Clp0006I 26363  Obj -190619 Primal inf 660568 (999)
Clp0006I 26445  Obj -190619 Primal inf 786106 (999)
Clp0006I 26551  Obj -190619 Primal inf 590028 (999)
Clp0006I 26639  Obj -190619 Primal inf 787731 (1000)
Clp0006I 26719  Obj -190619 Primal inf 781545 (1000)
Clp0006I 26816  Obj -190619 Primal inf 649828 (1000)
Clp0006I 26914  Obj -190619 Primal inf 719420 (1000)
Clp0006I 27002  Obj -190619 Primal inf 643245 (999)
Clp0006I 27107  Obj -190619 Primal inf 733306 (1000)
Clp0006I 27196  Obj -190619 Primal inf 821082 (1000)
Clp0006I 27276  Obj -190619 Primal inf 659361 (1000)
Clp0006I 27348  Obj -190619 Primal inf 662328 (1000)
Clp0006I 27446  Obj -190619 Primal inf 616488 (999)
Clp0006I 27547  Obj -190619 Primal inf 640482 (1000)
Clp0006I 27630  Obj -190619 Primal inf 640182 (999)
Clp0006I 27707  Obj -190619 Primal inf 719757 (999)
Clp0006I 27802  Obj -190619 Primal inf 690338 (999)
Clp0006I 27902  Obj -190619 Primal inf 883954 (999)
Clp0006I 28003  Obj -190619 Primal inf 724741 (1000)
Clp0006I 28095  Obj -190619 Primal inf 660616 (1000)
Clp0006I 28188  Obj -190619 Primal inf 852608 (1000)
Clp0006I 28281  Obj -190619 Primal inf 642837 (999)
Clp0006I 28371  Obj -190619 Primal inf 835092 (999)
Clp0006I 28460  Obj -190619 Primal inf 748611 (999)
Clp0006I 28547  Obj -190619 Primal inf 744641 (999)
Clp0006I 28631  Obj -190619 Primal inf 641629 (1000)
Clp0006I 28725  Obj -190619 Primal inf 693431 (1000)
Clp0006I 28823  Obj -190619 Primal inf 688193 (1000)
Clp0006I 28910  Obj -182633 Primal inf 541157 (1000)
Clp0006I 29054  Obj -182633 Primal inf 562424 (1000)
Clp0006I 29163  Obj -182633 Primal inf 626500 (1000)
Clp0006I 29263  Obj -182633 Primal inf 582302 (1000)
Clp0006I 29352  Obj -178599 Primal inf 583435 (1000)
Clp0006I 29467  Obj -178599 Primal inf 600791 (1000)
Clp0006I 29592  Obj -178599 Primal inf 585931 (1000)
Clp0006I 29714  Obj -178599 Primal inf 570352 (1000)
Clp0006I 29817  Obj -178599 Primal inf 557079 (1000)
Clp0006I 29922  Obj -178599 Primal inf 645602 (1000)
Clp0006I 30016  Obj -178599 Primal inf 611486 (1000)
Clp0006I 30128  Obj -178599 Primal inf 541320 (1000)
Clp0006I 30328  Obj -178599 Primal inf 540662 (1000)
Clp0006I 30528  Obj -178599 Primal inf 540062 (1000)
Clp0006I 30728  Obj -178599 Primal inf 539418 (1000)
Clp0006I 30908  Obj -178599 Primal inf 675102 (1000)
Clp0006I 31009  Obj -178599 Primal inf 636749 (1000)
Clp0006I 31119  Obj -178599 Primal inf 797790 (1000)
Clp0006I 31213  Obj -178599 Primal inf 754763 (1000)
Clp0006I 31308  Obj -178599 Primal inf 670781 (1000)
Clp0006I 31389  Obj -178599 Primal inf 627720 (1000)
Clp0006I 31479  Obj -178599 Primal inf 877197 (1000)
Clp0006I 31571  Obj -178599 Primal inf 633815 (999)
Clp0006I 31652  Obj -178599 Primal inf 632143 (1000)
Clp0006I 31739  Obj -178599 Primal inf 764879 (1000)
Clp0006I 31843  Obj -178599 Primal inf 762791 (1000)
Clp0006I 31932  Obj -178599 Primal inf 809852 (1000)
Clp0006I 32037  Obj -178599 Primal inf 714318 (1000)
Clp0006I 32132  Obj -178599 Primal inf 653885 (1000)
Clp0006I 32228  Obj -178599 Primal inf 858161 (1000)
Clp0006I 32338  Obj -178599 Primal inf 961754 (999)
Clp0006I 32426  Obj -178599 Primal inf 696867 (999)
Clp0006I 32510  Obj -178599 Primal inf 713970 (999)
Clp0006I 32608  Obj -178599 Primal inf 884354 (1000)
Clp0006I 32703  Obj -178599 Primal inf 724328 (1000)
Clp0006I 32792  Obj -178599 Primal inf 874389 (1000)
Clp0006I 32904  Obj -178599 Primal inf 733562 (1000)
Clp0006I 33005  Obj -178599 Primal inf 826758 (1000)
Clp0006I 33120  Obj -178599 Primal inf 918878 (1000)
Clp0006I 33211  Obj -178599 Primal inf 665414 (1000)
Clp0006I 33299  Obj -178599 Primal inf 674219 (1000)
Clp0006I 33395  Obj -178599 Primal inf 901681 (1000)
Clp0006I 33501  Obj -178599 Primal inf 671364 (1000)
Clp0006I 33590  Obj -178599 Primal inf 811440 (1000)
Clp0006I 33688  Obj -178599 Primal inf 749386 (1000)
Clp0006I 33787  Obj -178599 Primal inf 826125 (1000)
Clp0006I 33887  Obj -178599 Primal inf 750410 (1000)
Clp0006I 33984  Obj -178599 Primal inf 737548 (1000)
Clp0006I 34071  Obj -178599 Primal inf 770718 (1000)
Clp0006I 34177  Obj -178599 Primal inf 640253 (1000)
Clp0006I 34270  Obj -178599 Primal inf 741914 (1000)
Clp0006I 34366  Obj -178599 Primal inf 781722 (1000)
Clp0006I 34466  Obj -178599 Primal inf 665133 (1000)
Clp0006I 34556  Obj -178599 Primal inf 738258 (1000)
Clp0006I 34653  Obj -178599 Primal inf 689596 (1000)
Clp0006I 34760  Obj -178599 Primal inf 812009 (1000)
Clp0006I 34876  Obj -178599 Primal inf 862852 (1000)
Clp0006I 34971  Obj -178599 Primal inf 778726 (1000)
Clp0006I 35071  Obj -178599 Primal inf 811379 (1000)
Clp0006I 35176  Obj -178599 Primal inf 835487 (1000)
Clp0006I 35291  Obj -178599 Primal inf 776610 (1000)
Clp0006I 35392  Obj -178599 Primal inf 868188 (1000)
Clp0006I 35486  Obj -178599 Primal inf 698379 (1000)
Clp0006I 35574  Obj -178599 Primal inf 745948 (1000)
Clp0006I 35675  Obj -178599 Primal inf 823065 (999)
Clp0006I 35770  Obj -178599 Primal inf 699063 (999)
Clp0006I 35869  Obj -178599 Primal inf 735252 (999)
Clp0006I 35961  Obj -178599 Primal inf 866575 (999)
Clp0006I 36053  Obj -178599 Primal inf 746524 (999)
Clp0006I 36163  Obj -178599 Primal inf 813984 (999)
Clp0006I 36265  Obj -178599 Primal inf 773667 (999)
Clp0006I 36361  Obj -178599 Primal inf 764886 (999)
Clp0006I 36456  Obj -178599 Primal inf 919574 (999)
Clp0006I 36547  Obj -173549 Primal inf 661289 (999)
Clp0006I 36714  Obj -173549 Primal inf 680970 (999)
Clp0006I 36819  Obj -173549 Primal inf 708768 (999)
Clp0006I 36934  Obj -173549 Primal inf 698378 (999)
Clp0006I 37119  Obj -173549 Primal inf 670352 (1000)
Clp0006I 37269  Obj -173549 Primal inf 760625 (1000)
Clp0006I 37445  Obj -173549 Primal inf 731702 (1000)
Clp0006I 37578  Obj -173549 Primal inf 661486 (1000)
Clp0006I 37751  Obj -173549 Primal inf 688204 (1000)
Clp0006I 37936  Obj -173549 Primal inf 728361 (1000)
Clp0006I 38108  Obj -173549 Primal inf 684153 (1000)
Clp0006I 38216  Obj -173549 Primal inf 802844 (999)
Clp0006I 38324  Obj -173549 Primal inf 812496 (1000)
Clp0006I 38424  Obj -173549 Primal inf 761442 (1000)
Clp0006I 38522  Obj -173549 Primal inf 699342 (1000)
Clp0006I 38607  Obj -173549 Primal inf 743439 (1000)
Clp0006I 38698  Obj -173549 Primal inf 704900 (1000)
Clp0006I 38808  Obj -173549 Primal inf 801109 (1000)
Clp0006I 38933  Obj -173549 Primal inf 698232 (1000)
Clp0006I 39045  Obj -173549 Primal inf 663731 (1000)
Clp0006I 39139  Obj -173549 Primal inf 757520 (1000)
Clp0006I 39247  Obj -166639 Primal inf 712266 (1000)
Clp0006I 39365  Obj -166639 Primal inf 637522 (1000)
Clp0006I 39481  Obj -166639 Primal inf 696601 (1000)
Clp0006I 39596  Obj -166639 Primal inf 602926 (1000)
Clp0006I 39714  Obj -166639 Primal inf 678084 (1000)
Clp0006I 39789  Obj -166639 Primal inf 747828 (1000)
Clp0006I 39865  Obj -166639 Primal inf 918494 (1000)
Clp0006I 39943  Obj -166639 Primal inf 785844 (1000)
Clp0006I 40022  Obj -166639 Primal inf 988787 (1000)
Clp0006I 40111  Obj -166639 Primal inf 2921016 (1000)
Clp0006I 40251  Obj -166639 Primal inf 3711212 (1000)
Clp0006I 40385  Obj -166639 Primal inf 2329252 (1000)
Clp0006I 40546  Obj -166639 Primal inf 2621695 (1000)
Clp0006I 40667  Obj -166639 Primal inf 3915857 (1000)
Clp0006I 40800  Obj -166638.99 Primal inf 1954455 (1000)
Clp0006I 40947  Obj -166638.99 Primal inf 2687292 (1000)
Clp0006I 41076  Obj -166638.99 Primal inf 2194185 (1000)
Clp0006I 41196  Obj -166638.99 Primal inf 3173732 (1000)
Clp0006I 41337  Obj -166638.99 Primal inf 3162552 (1000)
Clp0006I 41474  Obj -166638.99 Primal inf 2656704 (1000)
Clp0006I 41607  Obj -166638.99 Primal inf 3101787 (1000)
Clp0006I 41747  Obj -166638.99 Primal inf 2880897 (1000)
Clp0006I 41889  Obj -166638.99 Primal inf 2597468 (1000)
Clp0006I 42012  Obj -166638.99 Primal inf 2867914 (1000)
Clp0006I 42142  Obj -166638.99 Primal inf 2415248 (1000)
Clp0006I 42268  Obj -166638.99 Primal inf 2851722 (1000)
Clp0006I 42405  Obj -166638.99 Primal inf 2619592 (1000)
Clp0006I 42548  Obj -166638.99 Primal inf 2382572 (1000)
Clp0006I 42686  Obj -166638.99 Primal inf 2601037 (1000)
Clp0006I 42833  Obj -166638.99 Primal inf 1691938 (1000)
Clp0006I 42964  Obj -166638.99 Primal inf 2580746 (1000)
Clp0006I 43119  Obj -166638.99 Primal inf 3062127 (1000)
Clp0006I 43260  Obj -166638.99 Primal inf 2376771 (1000)
Clp0006I 43397  Obj -166638.99 Primal inf 2352352 (1000)
Clp0006I 43540  Obj -166638.99 Primal inf 2806958 (1000)
Clp0006I 43663  Obj -166638.99 Primal inf 2831681 (1000)
Clp0006I 43794  Obj -166638.99 Primal inf 2851953 (1000)
Clp0006I 43922  Obj -166638.99 Primal inf 1786134 (1000)
Clp0006I 44060  Obj -166638.99 Primal inf 3095733 (1000)
Clp0006I 44195  Obj -166638.99 Primal inf 3076465 (1000)
Clp0006I 44329  Obj -166638.99 Primal inf 2618825 (1000)
Clp0006I 44462  Obj -166638.99 Primal inf 2669616 (1000)
Clp0006I 44585  Obj -166638.99 Primal inf 1987938 (1000)
Clp0006I 44719  Obj -166638.99 Primal inf 2673207 (1000)
Clp0006I 44854  Obj -166638.99 Primal inf 2714914 (1000)

TIME LIMIT REACHED!
real 1m20,924s user 1m20,653s sys 0m0,173s
